Problem:    
Rows:       354
Columns:    129 (110 integer, 110 binary)
Non-zeros:  1125
Status:     INTEGER OPTIMAL
Objective:  value = 10.0251 (MINimum)

   No.   Row name        Activity     Lower bound   Upper bound
------ ------------    ------------- ------------- -------------
     1 r.5                         1             1             = 
     2 r.6                   10.0251             0               
     3 r.7                   10.0251      -995.988               
     4 r.8                   1010.03             0               
     5 r.9                  -991.353      -998.295               
     6 r.10                  10.0251             0               
     7 r.11                  10.0251       -997.14               
     8 r.12                  1010.03             0               
     9 r.13                 -993.058      -998.621               
    10 r.14                  10.0251             0               
    11 r.15                   5.5633      -996.826               
    12 r.16                  1010.03             0               
    13 r.17                 -994.437      -997.272               
    14 r.18                  10.0251             0               
    15 r.19                  10.0251      -997.118               
    16 r.20                  1010.03             0               
    17 r.21                 -989.975      -998.622               
    18 r.22                  1010.03             0               
    19 r.23                 -991.826      -996.825               
    20 r.24                  10.0251             0               
    21 r.25                   8.6468      -997.202               
    22 r.26                  1010.03             0               
    23 r.27                 -995.001      -995.353               
    24 r.28                  10.0251             0               
    25 r.29                   4.9987      -996.166               
    26 r.30                  1010.03             0               
    27 r.31                 -989.975      -998.149               
    28 r.32                  10.0251             0               
    29 r.33                  10.0251      -998.358               
    30 r.34                  10.0251             0               
    31 r.35                 -995.686      -996.038               
    32 r.36                  1010.03             0               
    33 r.37                 -997.165      -998.244               
    34 r.38                  1010.03             0               
    35 r.39                 -999.648      -999.648               
    36 r.40                  10.0251             0               
    37 r.41                   0.3516      -998.853               
    38 r.42                        1             1             = 
    39 r.43                        1             1             = 
    40 r.44                        1             1             = 
    41 r.45                        1             1             = 
    42 r.46                        1             1             = 
    43 r.47                        1             1             = 
    44 r.48                        1             1             = 
    45 r.49                        1             1             = 
    46 r.50                        1             1             = 
    47 r.51                     1000             2               
    48 r.52                    -1000         -1001               
    49 r.53                     2000       -997.14               
    50 r.54                        2             2               
    51 r.55                       -2         -1001               
    52 r.56                  -1.7047      -998.621               
    53 r.57                     1000             2               
    54 r.58                    -1000         -1001               
    55 r.59                  1995.54      -996.826               
    56 r.60                        2             2               
    57 r.61                       -2         -1001               
    58 r.62                  -3.0835      -997.272               
    59 r.63                     1000             2               
    60 r.64                    -1000         -1001               
    61 r.65                     2000      -997.118               
    62 r.66                        2             2               
    63 r.67                       -2         -1001               
    64 r.68                 -998.622      -998.622               
    65 r.69                     1001             2               
    66 r.70                    -1001         -1001               
    67 r.71                  1998.15      -996.825               
    68 r.72                     1001             2               
    69 r.73                    -1001         -1001               
    70 r.74                     2000      -997.202               
    71 r.75                     1001             2               
    72 r.76                    -1001         -1001               
    73 r.77                  1994.97      -995.353               
    74 r.78                     1001             2               
    75 r.79                    -1001         -1001               
    76 r.80                  1996.35      -996.166               
    77 r.81                     1001             2               
    78 r.82                    -1001         -1001               
    79 r.83                     2000      -998.149               
    80 r.84                     1001             2               
    81 r.85                    -1001         -1001               
    82 r.86                  2001.38      -998.358               
    83 r.87                     1000             2               
    84 r.88                    -1000         -1001               
    85 r.89                  994.289      -996.038               
    86 r.90                        2             2               
    87 r.91                       -2         -1001               
    88 r.92                  -5.8116      -998.244               
    89 r.93                   9.6735      -995.988               
    90 r.94                 -991.705      -998.295               
    91 r.95                   9.6735      -995.988               
    92 r.96                 -991.705      -998.295               
    93 r.97                     1000             2               
    94 r.98                    -1000         -1001               
    95 r.99                     2000         4.012               
    96 r.100                       2             2               
    97 r.101                      -2         -1001               
    98 r.102                  1.7047        1.7047               
    99 r.103                  4.4618       -997.14               
   100 r.104                -998.621      -998.621               
   101 r.105                  4.4618       -997.14               
   102 r.106                -998.621      -998.621               
   103 r.107                    1000             2               
   104 r.108                   -1000         -1001               
   105 r.109                    2000      -997.118               
   106 r.110                       2             2               
   107 r.111                      -2         -1001               
   108 r.112                -996.917      -998.622               
   109 r.113                    1001             2               
   110 r.114                   -1001         -1001               
   111 r.115                 1998.15      -996.825               
   112 r.116                    1001             2               
   113 r.117                   -1001         -1001               
   114 r.118                  2001.7      -997.202               
   115 r.119                    1001             2               
   116 r.120                   -1001         -1001               
   117 r.121                 1994.97      -995.353               
   118 r.122                    1001             2               
   119 r.123                   -1001         -1001               
   120 r.124                 1998.06      -996.166               
   121 r.125                    1001             2               
   122 r.126                   -1001         -1001               
   123 r.127                    2000      -998.149               
   124 r.128                    1001             2               
   125 r.129                   -1001         -1001               
   126 r.130                 2003.08      -998.358               
   127 r.131                    1000             2               
   128 r.132                   -1000         -1001               
   129 r.133                 994.289      -996.038               
   130 r.134                       2             2               
   131 r.135                      -2         -1001               
   132 r.136                 -4.1069      -998.244               
   133 r.137                    1000             2               
   134 r.138                   -1000         -1001               
   135 r.139                 2004.46         4.012               
   136 r.140                       2             2               
   137 r.141                      -2         -1001               
   138 r.142                  3.0835        1.7047               
   139 r.143                    1000             2               
   140 r.144                   -1000         -1001               
   141 r.145                 2004.46      -997.118               
   142 r.146                       2             2               
   143 r.147                      -2         -1001               
   144 r.148                -995.538      -998.622               
   145 r.149                    1001             2               
   146 r.150                   -1001         -1001               
   147 r.151                 2002.61      -996.825               
   148 r.152                    1001             2               
   149 r.153                   -1001         -1001               
   150 r.154                 2003.08      -997.202               
   151 r.155                    1001             2               
   152 r.156                   -1001         -1001               
   153 r.157                 1999.44      -995.353               
   154 r.158                    1001             2               
   155 r.159                   -1001         -1001               
   156 r.160                 1999.44      -996.166               
   157 r.161                    1001             2               
   158 r.162                   -1001         -1001               
   159 r.163                 2004.46      -998.149               
   160 r.164                    1001             2               
   161 r.165                   -1001         -1001               
   162 r.166                 2004.46      -998.358               
   163 r.167                    1000             2               
   164 r.168                   -1000         -1001               
   165 r.169                  998.75      -996.038               
   166 r.170                       2             2               
   167 r.171                      -2         -1001               
   168 r.172                 -2.7281      -998.244               
   169 r.173                  5.2117      -996.826               
   170 r.174                -994.788      -997.272               
   171 r.175                  5.2117      -996.826               
   172 r.176                -994.788      -997.272               
   173 r.177                    1000             2               
   174 r.178                   -1000         -1001               
   175 r.179                    2000         4.012               
   176 r.180                       2             2               
   177 r.181                      -2         -1001               
   178 r.182                 998.622        1.7047               
   179 r.183                    1000             2               
   180 r.184                   -1000         -1001               
   181 r.185                    2000        2.8599               
   182 r.186                       2             2               
   183 r.187                      -2         -1001               
   184 r.188                 996.917        1.3788               
   185 r.189                    1000             2               
   186 r.190                   -1000         -1001               
   187 r.191                 1995.54        3.1743               
   188 r.192                       2             2               
   189 r.193                      -2         -1001               
   190 r.194                 995.538        2.7281               
   191 r.195                  1.8511      -997.118               
   192 r.196                -998.149      -998.622               
   193 r.197                  1.3783      -997.118               
   194 r.198                -998.622      -998.622               
   195 r.199                    1001             2               
   196 r.200                   -1001         -1001               
   197 r.201                    2000      -998.149               
   198 r.202                    1001             2               
   199 r.203                   -1001         -1001               
   200 r.204                    2000      -998.358               
   201 r.205                    1000             2               
   202 r.206                   -1000         -1001               
   203 r.207                 994.289      -996.038               
   204 r.208                       2             2               
   205 r.209                      -2         -1001               
   206 r.210                 -7.1899      -998.244               
   207 r.211                    1001             2               
   208 r.212                   -1001         -1001               
   209 r.213                 2001.85         4.012               
   210 r.214                    1001             2               
   211 r.215                   -1001         -1001               
   212 r.216                    2000        1.7047               
   213 r.217                    1001             2               
   214 r.218                   -1001         -1001               
   215 r.219                 2001.85        2.8599               
   216 r.220                    1001             2               
   217 r.221                   -1001         -1001               
   218 r.222                  1998.3        1.3788               
   219 r.223                    1001             2               
   220 r.224                   -1001         -1001               
   221 r.225                 1997.39        3.1743               
   222 r.226                    1001             2               
   223 r.227                   -1001         -1001               
   224 r.228                 1996.92        2.7281               
   225 r.229                -996.825      -996.825               
   226 r.230                  3.6481      -997.202               
   227 r.231                -996.825      -996.825               
   228 r.232                  3.6481      -997.202               
   229 r.233                       2             2               
   230 r.234                      -2         -1001               
   231 r.235                -998.149      -998.149               
   232 r.236                    1000             2               
   233 r.237                   -1000         -1001               
   234 r.238                 2001.38      -998.358               
   235 r.239                    1001             2               
   236 r.240                   -1001         -1001               
   237 r.241                  996.14      -996.038               
   238 r.242                    1001             2               
   239 r.243                   -1001         -1001               
   240 r.244                 1994.19      -998.244               
   241 r.245                    1001             2               
   242 r.246                   -1001         -1001               
   243 r.247                 2005.03         4.012               
   244 r.248                    1001             2               
   245 r.249                   -1001         -1001               
   246 r.250                 2003.65        1.7047               
   247 r.251                    1001             2               
   248 r.252                   -1001         -1001               
   249 r.253                 2005.03        2.8599               
   250 r.254                    1001             2               
   251 r.255                   -1001         -1001               
   252 r.256                 2001.94        1.3788               
   253 r.257                    1001             2               
   254 r.258                   -1001         -1001               
   255 r.259                 2000.56        3.1743               
   256 r.260                    1001             2               
   257 r.261                   -1001         -1001               
   258 r.262                 2000.56        2.7281               
   259 r.263                       2             2               
   260 r.264                      -2         -1001               
   261 r.265                -994.974      -998.149               
   262 r.266                    1000             2               
   263 r.267                   -1000         -1001               
   264 r.268                 2005.03      -998.358               
   265 r.269                    1001             2               
   266 r.270                   -1001         -1001               
   267 r.271                 999.315      -996.038               
   268 r.272                    1001             2               
   269 r.273                   -1001         -1001               
   270 r.274                 1997.84      -998.244               
   271 r.275                -995.353      -995.353               
   272 r.276                  4.6471      -996.166               
   273 r.277                -995.353      -995.353               
   274 r.278                  4.6471      -996.166               
   275 r.279                    1001             2               
   276 r.280                   -1001         -1001               
   277 r.281                    2000         4.012               
   278 r.282                    1001             2               
   279 r.283                   -1001         -1001               
   280 r.284                 1998.62        1.7047               
   281 r.285                    1001             2               
   282 r.286                   -1001         -1001               
   283 r.287                    2000        2.8599               
   284 r.288                    1001             2               
   285 r.289                   -1001         -1001               
   286 r.290                 1996.92        1.3788               
   287 r.291                    1001             2               
   288 r.292                   -1001         -1001               
   289 r.293                 1995.54        3.1743               
   290 r.294                    1001             2               
   291 r.295                   -1001         -1001               
   292 r.296                 1995.54        2.7281               
   293 r.297                    1001             2               
   294 r.298                   -1001         -1001               
   295 r.299                    2000       2.88211               
   296 r.300                    1001             2               
   297 r.301                   -1001         -1001               
   298 r.302                    2000        1.3783               
   299 r.303                       2             2               
   300 r.304                      -2         -1001               
   301 r.305                 998.149        3.1753               
   302 r.306                    1000             2               
   303 r.307                   -1000         -1001               
   304 r.308                 1998.62        2.7985               
   305 r.309                       2             2               
   306 r.310                      -2         -1001               
   307 r.311                 994.974        4.6471               
   308 r.312                    1000             2               
   309 r.313                   -1000         -1001               
   310 r.314                 1994.97        3.8339               
   311 r.315                  5.7114      -998.149               
   312 r.316                 1005.71      -998.358               
   313 r.317                 -992.81      -998.149               
   314 r.318                  7.1899      -998.358               
   315 r.319                    1000             2               
   316 r.320                   -1000         -1001               
   317 r.321                 3005.71         4.012               
   318 r.322                       2             2               
   319 r.323                      -2         -1001               
   320 r.324                  5.8116        1.7047               
   321 r.325                    1000             2               
   322 r.326                   -1000         -1001               
   323 r.327                 3005.71        2.8599               
   324 r.328                       2             2               
   325 r.329                      -2         -1001               
   326 r.330                  4.1069        1.3788               
   327 r.331                    1000             2               
   328 r.332                   -1000         -1001               
   329 r.333                 3001.25        3.1743               
   330 r.334                       2             2               
   331 r.335                      -2         -1001               
   332 r.336                  2.7281        2.7281               
   333 r.337                    1000             2               
   334 r.338                   -1000         -1001               
   335 r.339                 3005.71       2.88211               
   336 r.340                       2             2               
   337 r.341                      -2         -1001               
   338 r.342                  7.1899        1.3783               
   339 r.343                    1001             2               
   340 r.344                   -1001         -1001               
   341 r.345                 3003.86        3.1753               
   342 r.346                    1001             2               
   343 r.347                   -1001         -1001               
   344 r.348                 2005.81        2.7985               
   345 r.349                    1001             2               
   346 r.350                   -1001         -1001               
   347 r.351                 3000.68        4.6471               
   348 r.352                    1001             2               
   349 r.353                   -1001         -1001               
   350 r.354                 2002.16        3.8339               
   351 r.355                -996.038      -996.038               
   352 r.356                -997.516      -998.244               
   353 r.357                -996.038      -996.038               
   354 r.358                -997.516      -998.244               

   No. Column name       Activity     Lower bound   Upper bound
------ ------------    ------------- ------------- -------------
     1 tt                    10.0251             0               
     2 s_1_9        *              1             0             1 
     3 s_1_1        *              0             0             1 
     4 t_1_1                       0             0               
     5 s_2_1        *              1             0             1 
     6 t_2_1                  1.3783             0               
     7 s_1_2        *              0             0             1 
     8 t_1_2                       0             0               
     9 s_2_2        *              1             0             1 
    10 t_2_2                   3.083             0               
    11 s_1_3        *              0             0             1 
    12 t_1_3                  4.4618             0               
    13 s_2_3        *              1             0             1 
    14 t_2_3                  4.4618             0               
    15 s_1_4        *              0             0             1 
    16 t_1_4                       0             0               
    17 s_2_4        *              1             0             1 
    18 t_2_4                       0             0               
    19 s_1_5        *              1             0             1 
    20 t_1_5                  1.8511             0               
    21 s_2_5        *              0             0             1 
    22 t_2_5                  1.3783             0               
    23 s_1_6        *              1             0             1 
    24 t_1_6                  5.0264             0               
    25 s_2_6        *              0             0             1 
    26 t_2_6                  5.0264             0               
    27 s_1_7        *              1             0             1 
    28 t_1_7                       0             0               
    29 s_2_7        *              0             0             1 
    30 t_2_7                       0             0               
    31 s_1_8        *              0             0             1 
    32 t_1_8                 1005.71             0               
    33 s_2_8        *              1             0             1 
    34 t_2_8                  7.1899             0               
    35 t_1_9                  9.6735             0               
    36 s_2_9        *              0             0             1 
    37 t_2_9                  9.6735             0               
    38 r_1_1_2      *              1             0             1 
    39 u_1_1_2      *              0             0             1 
    40 r_2_1_2      *              0             0             1 
    41 u_2_1_2      *              0             0             1 
    42 r_1_1_3      *              1             0             1 
    43 u_1_1_3      *              0             0             1 
    44 r_2_1_3      *              0             0             1 
    45 u_2_1_3      *              0             0             1 
    46 r_1_1_4      *              1             0             1 
    47 u_1_1_4      *              0             0             1 
    48 r_2_1_4      *              0             0             1 
    49 u_2_1_4      *              1             0             1 
    50 r_1_1_5      *              1             0             1 
    51 u_1_1_5      *              0             0             1 
    52 r_2_1_5      *              1             0             1 
    53 u_2_1_5      *              0             0             1 
    54 r_1_1_6      *              1             0             1 
    55 u_1_1_6      *              0             0             1 
    56 r_2_1_6      *              1             0             1 
    57 u_2_1_6      *              0             0             1 
    58 r_1_1_7      *              1             0             1 
    59 u_1_1_7      *              0             0             1 
    60 r_2_1_7      *              1             0             1 
    61 u_2_1_7      *              0             0             1 
    62 r_1_1_8      *              1             0             1 
    63 u_1_1_8      *              0             0             1 
    64 r_2_1_8      *              0             0             1 
    65 u_2_1_8      *              0             0             1 
    66 r_1_2_4      *              1             0             1 
    67 u_1_2_4      *              0             0             1 
    68 r_2_2_4      *              0             0             1 
    69 u_2_2_4      *              1             0             1 
    70 r_1_2_5      *              1             0             1 
    71 u_1_2_5      *              0             0             1 
    72 r_2_2_5      *              1             0             1 
    73 u_2_2_5      *              0             0             1 
    74 r_1_2_6      *              1             0             1 
    75 u_1_2_6      *              0             0             1 
    76 r_2_2_6      *              1             0             1 
    77 u_2_2_6      *              0             0             1 
    78 r_1_2_7      *              1             0             1 
    79 u_1_2_7      *              0             0             1 
    80 r_2_2_7      *              1             0             1 
    81 u_2_2_7      *              0             0             1 
    82 r_1_2_8      *              1             0             1 
    83 u_1_2_8      *              0             0             1 
    84 r_2_2_8      *              0             0             1 
    85 u_2_2_8      *              0             0             1 
    86 r_1_3_4      *              1             0             1 
    87 u_1_3_4      *              0             0             1 
    88 r_2_3_4      *              0             0             1 
    89 u_2_3_4      *              1             0             1 
    90 r_1_3_5      *              1             0             1 
    91 u_1_3_5      *              0             0             1 
    92 r_2_3_5      *              1             0             1 
    93 u_2_3_5      *              0             0             1 
    94 r_1_3_6      *              1             0             1 
    95 u_1_3_6      *              0             0             1 
    96 r_2_3_6      *              1             0             1 
    97 u_2_3_6      *              0             0             1 
    98 r_1_3_7      *              1             0             1 
    99 u_1_3_7      *              0             0             1 
   100 r_2_3_7      *              1             0             1 
   101 u_2_3_7      *              0             0             1 
   102 r_1_3_8      *              1             0             1 
   103 u_1_3_8      *              0             0             1 
   104 r_2_3_8      *              0             0             1 
   105 u_2_3_8      *              0             0             1 
   106 r_1_4_7      *              1             0             1 
   107 u_1_4_7      *              0             0             1 
   108 r_2_4_7      *              1             0             1 
   109 u_2_4_7      *              0             0             1 
   110 r_1_4_8      *              1             0             1 
   111 u_1_4_8      *              0             0             1 
   112 r_2_4_8      *              0             0             1 
   113 u_2_4_8      *              0             0             1 
   114 r_1_5_7      *              0             0             1 
   115 u_1_5_7      *              1             0             1 
   116 r_2_5_7      *              1             0             1 
   117 u_2_5_7      *              0             0             1 
   118 r_1_5_8      *              1             0             1 
   119 u_1_5_8      *              0             0             1 
   120 r_2_5_8      *              1             0             1 
   121 u_2_5_8      *              0             0             1 
   122 r_1_6_7      *              0             0             1 
   123 u_1_6_7      *              1             0             1 
   124 r_2_6_7      *              1             0             1 
   125 u_2_6_7      *              0             0             1 
   126 r_1_6_8      *              1             0             1 
   127 u_1_6_8      *              0             0             1 
   128 r_2_6_8      *              1             0             1 
   129 u_2_6_8      *              0             0             1 

Integer feasibility conditions:

KKT.PE: max.abs.err = 2.27e-13 on row 76
        max.rel.err = 5.68e-17 on row 76
        High quality

KKT.PB: max.abs.err = 4.44e-16 on row 332
        max.rel.err = 1.19e-16 on row 332
        High quality

End of output
